
Gurobi 12.0.3 (linux64) logging started Thu Aug 21 03:41:49 2025

Set parameter LogFile to value "logs/instance-11.txt"
Gurobi Optimizer version 12.0.3 build v12.0.3rc0 (linux64 - "Ubuntu 24.04.3 LTS")

CPU model: Intel(R) Core(TM) i5-8250U CPU @ 1.60GHz, instruction set [SSE2|AVX|AVX2]
Thread count: 4 physical cores, 8 logical processors, using up to 8 threads

Non-default parameters:
TimeLimit  900

Optimize a model with 59900 rows, 20100 columns and 147300 nonzeros
Model fingerprint: 0x72cf855d
Variable types: 0 continuous, 20100 integer (20100 binary)
Coefficient statistics:
  Matrix range     [1e+00, 1e+00]
  Objective range  [1e+00, 1e+01]
  Bounds range     [1e+00, 1e+00]
  RHS range        [1e+00, 1e+00]
Found heuristic solution: objective 163.0000000
Presolve removed 31230 rows and 950 columns
Presolve time: 1.12s
Presolved: 28670 rows, 19150 columns, 74370 nonzeros
Variable types: 0 continuous, 19150 integer (19150 binary)

Root simplex log...

Iteration    Objective       Primal Inf.    Dual Inf.      Time
   17738    2.6818000e+04   4.963000e+03   0.000000e+00      5s
   19211    2.5872500e+04   0.000000e+00   0.000000e+00      6s

Root relaxation: objective 2.587250e+04, 19211 iterations, 4.86 seconds (3.46 work units)

    Nodes    |    Current Node    |     Objective Bounds      |     Work
 Expl Unexpl |  Obj  Depth IntInf | Incumbent    BestBd   Gap | It/Node Time

     0     0 25872.5000    0 9720  163.00000 25872.5000      -     -    6s
H    0     0                     312.0000000 25872.5000  8192%     -    6s
H    0     0                    2423.0000000 25872.5000   968%     -    6s
H    0     0                    2480.0000000 25872.5000   943%     -   12s
H    0     0                    2532.0000000 25872.5000   922%     -   12s
H    0     0                    2538.0000000 24165.0000   852%     -   18s
     0     0 24165.0000    0 9677 2538.00000 24165.0000   852%     -   18s
     0     0 22598.5000    0 9676 2538.00000 22598.5000   790%     -   24s
     0     0 21997.4615    0 9835 2538.00000 21997.4615   767%     -   32s
     0     0 20823.6308    0 10677 2538.00000 20823.6308   720%     -   56s
H    0     0                    2568.0000000 20185.2658   686%     -   75s
     0     0 20185.2658    0 11288 2568.00000 20185.2658   686%     -   75s
     0     0 20175.1667    0 11260 2568.00000 20175.1667   686%     -   76s
     0     0 20174.0000    0 11259 2568.00000 20174.0000   686%     -   76s
     0     0 20174.0000    0 11259 2568.00000 20174.0000   686%     -   77s
H    0     0                    2571.0000000 19177.2535   646%     -  135s
H    0     0                    2623.0000000 19177.2535   631%     -  135s
H    0     0                    2632.0000000 19177.2535   629%     -  135s
H    0     0                    2818.0000000 19177.2535   581%     -  135s
     0     0 19177.2535    0 10813 2818.00000 19177.2535   581%     -  135s
H    0     0                    3024.0000000 17732.3072   486%     -  197s
H    0     0                    3087.0000000 17732.3072   474%     -  197s
H    0     0                    3166.0000000 17732.3072   460%     -  197s
H    0     0                    3184.0000000 17732.3072   457%     -  197s
H    0     0                    3343.0000000 17732.3072   430%     -  197s
H    0     0                    3360.0000000 17732.3072   428%     -  197s
H    0     0                    3691.0000000 17732.3072   380%     -  197s
H    0     0                    3779.0000000 17732.3072   369%     -  197s
H    0     0                    3812.0000000 17732.3072   365%     -  197s
H    0     0                    3823.0000000 17732.3072   364%     -  197s
H    0     0                    3907.0000000 17732.3072   354%     -  197s
H    0     0                    3954.0000000 17732.3072   348%     -  197s
H    0     0                    3998.0000000 17732.3072   344%     -  197s
     0     0 17732.3072    0 10350 3998.00000 17732.3072   344%     -  197s
H    0     0                    4064.0000000 16432.8256   304%     -  287s
H    0     0                    4163.0000000 16432.8256   295%     -  287s
H    0     0                    4230.0000000 16432.8256   288%     -  287s
H    0     0                    4299.0000000 16432.8256   282%     -  287s
     0     0 16432.8256    0 10313 4299.00000 16432.8256   282%     -  288s
H    0     0                    4315.0000000 15360.8263   256%     -  407s
     0     0 15360.8263    0 10980 4315.00000 15360.8263   256%     -  407s
     0     0 14524.3734    0 11557 4315.00000 14524.3734   237%     -  527s
     0     0 14235.8502    0 12278 4315.00000 14235.8502   230%     -  661s
H    0     0                    4321.0000000 14083.7202   226%     -  791s
     0     0 14083.7202    0 12581 4321.00000 14083.7202   226%     -  791s
     0     0          -    0      4321.00000 14083.7202   226%     -  900s

Cutting planes:
  Gomory: 2
  Dual implied bound: 5
  Zero half: 474
  RLT: 8981
  BQP: 5134

Explored 1 nodes (482375 simplex iterations) in 900.03 seconds (351.49 work units)
Thread count was 8 (of 8 available processors)

Solution count 10: 4321 4315 4299 ... 3823

Time limit reached
Best objective 4.321000000000e+03, best bound 1.408300000000e+04, gap 225.9199%

Gurobi 12.0.3 (linux64) logging started Thu Aug 21 11:14:20 2025

Set parameter LogFile to value "logs/instance-11.txt"
Gurobi Optimizer version 12.0.3 build v12.0.3rc0 (linux64 - "Ubuntu 24.04.3 LTS")

CPU model: Intel(R) Core(TM) i5-8250U CPU @ 1.60GHz, instruction set [SSE2|AVX|AVX2]
Thread count: 4 physical cores, 8 logical processors, using up to 8 threads

Non-default parameters:
TimeLimit  600

Optimize a model with 59900 rows, 20100 columns and 147300 nonzeros
Model fingerprint: 0x72cf855d
Variable types: 0 continuous, 20100 integer (20100 binary)
Coefficient statistics:
  Matrix range     [1e+00, 1e+00]
  Objective range  [1e+00, 1e+01]
  Bounds range     [1e+00, 1e+00]
  RHS range        [1e+00, 1e+00]
Found heuristic solution: objective 163.0000000
Presolve removed 31230 rows and 950 columns
Presolve time: 1.20s
Presolved: 28670 rows, 19150 columns, 74370 nonzeros
Variable types: 0 continuous, 19150 integer (19150 binary)

Root simplex log...

Iteration    Objective       Primal Inf.    Dual Inf.      Time
   17738    2.6818000e+04   4.963000e+03   0.000000e+00      5s
   19211    2.5872500e+04   0.000000e+00   0.000000e+00      6s

Root relaxation: objective 2.587250e+04, 19211 iterations, 4.77 seconds (3.46 work units)

    Nodes    |    Current Node    |     Objective Bounds      |     Work
 Expl Unexpl |  Obj  Depth IntInf | Incumbent    BestBd   Gap | It/Node Time

     0     0 25872.5000    0 9720  163.00000 25872.5000      -     -    6s
H    0     0                     312.0000000 25872.5000  8192%     -    6s
H    0     0                    2423.0000000 25872.5000   968%     -    6s
H    0     0                    2480.0000000 25872.5000   943%     -   12s
H    0     0                    2532.0000000 25872.5000   922%     -   12s
H    0     0                    2538.0000000 24165.0000   852%     -   18s
     0     0 24165.0000    0 9677 2538.00000 24165.0000   852%     -   18s
     0     0 22598.5000    0 9676 2538.00000 22598.5000   790%     -   24s
     0     0 21997.4615    0 9835 2538.00000 21997.4615   767%     -   32s
     0     0 20823.6308    0 10677 2538.00000 20823.6308   720%     -   56s
H    0     0                    2568.0000000 20185.2658   686%     -   75s
     0     0 20185.2658    0 11288 2568.00000 20185.2658   686%     -   75s
     0     0 20175.1667    0 11260 2568.00000 20175.1667   686%     -   76s
     0     0 20174.0000    0 11259 2568.00000 20174.0000   686%     -   76s
     0     0 20174.0000    0 11259 2568.00000 20174.0000   686%     -   76s
H    0     0                    2571.0000000 19177.2535   646%     -  134s
H    0     0                    2623.0000000 19177.2535   631%     -  134s
H    0     0                    2632.0000000 19177.2535   629%     -  134s
H    0     0                    2818.0000000 19177.2535   581%     -  134s
     0     0 19177.2535    0 10813 2818.00000 19177.2535   581%     -  134s
H    0     0                    3024.0000000 17732.3072   486%     -  196s
H    0     0                    3087.0000000 17732.3072   474%     -  196s
H    0     0                    3166.0000000 17732.3072   460%     -  196s
H    0     0                    3184.0000000 17732.3072   457%     -  197s
H    0     0                    3343.0000000 17732.3072   430%     -  197s
H    0     0                    3360.0000000 17732.3072   428%     -  197s
H    0     0                    3691.0000000 17732.3072   380%     -  197s
H    0     0                    3779.0000000 17732.3072   369%     -  197s
H    0     0                    3812.0000000 17732.3072   365%     -  197s
H    0     0                    3823.0000000 17732.3072   364%     -  197s
H    0     0                    3907.0000000 17732.3072   354%     -  197s
H    0     0                    3954.0000000 17732.3072   348%     -  197s
H    0     0                    3998.0000000 17732.3072   344%     -  197s
     0     0 17732.3072    0 10350 3998.00000 17732.3072   344%     -  197s
H    0     0                    4064.0000000 16432.8256   304%     -  287s
H    0     0                    4163.0000000 16432.8256   295%     -  287s
H    0     0                    4230.0000000 16432.8256   288%     -  287s
H    0     0                    4299.0000000 16432.8256   282%     -  287s
     0     0 16432.8256    0 10313 4299.00000 16432.8256   282%     -  287s
H    0     0                    4315.0000000 15360.8263   256%     -  406s
     0     0 15360.8263    0 10980 4315.00000 15360.8263   256%     -  406s
     0     0 14524.3734    0 11557 4315.00000 14524.3734   237%     -  526s
     0     0          -    0      4315.00000 14524.3734   237%     -  600s

Cutting planes:
  Gomory: 2
  Dual implied bound: 3
  Zero half: 379
  RLT: 8397
  BQP: 4887

Explored 1 nodes (325828 simplex iterations) in 600.03 seconds (236.83 work units)
Thread count was 8 (of 8 available processors)

Solution count 10: 4315 4299 4230 ... 3812

Time limit reached
Best objective 4.315000000000e+03, best bound 1.452400000000e+04, gap 236.5933%
